c description: Random 3-CNF over 24 variables and 102 clauses
c generator: CNFgen (0.9.2)
c copyright: (C) 2012-2022 Massimo Lauria <massimo.lauria@uniroma1.it>
c url: https://massimolauria.net/cnfgen
c command line: cnfgen --output CNF_4.28/24_bit_102_445.cnf randkcnf 3 24 102
c
p cnf 24 102
3 -4 20 0
3 15 16 0
-19 22 24 0
-11 -23 24 0
2 -7 8 0
-12 -13 -22 0
-1 11 -22 0
-9 -10 -12 0
-3 -9 -10 0
-3 -12 -17 0
-5 -19 22 0
-14 23 -24 0
3 8 -16 0
-1 -10 -23 0
-8 16 -18 0
-3 -9 24 0
-3 11 -15 0
4 8 -22 0
5 -14 -15 0
-7 -17 21 0
-3 6 -18 0
-1 4 20 0
3 -18 -24 0
-12 -15 -16 0
6 13 -15 0
10 18 -21 0
-16 -21 23 0
-5 16 21 0
5 -12 -22 0
6 7 22 0
-5 -7 12 0
16 -17 19 0
5 10 20 0
-7 9 -11 0
-5 9 15 0
3 -4 21 0
-17 20 21 0
-3 -6 10 0
6 7 14 0
5 -14 17 0
3 5 -7 0
4 17 23 0
-4 5 -21 0
7 -9 -16 0
4 8 10 0
-3 -7 -18 0
3 16 24 0
1 2 -22 0
8 22 -24 0
-1 10 23 0
3 -6 21 0
-13 -18 24 0
1 7 23 0
-19 -22 23 0
11 -20 22 0
-6 8 -14 0
-4 -10 21 0
4 6 -10 0
1 -7 23 0
-16 -17 18 0
-19 20 -24 0
-7 11 -20 0
13 16 -21 0
2 -3 -17 0
-4 7 12 0
-1 -10 19 0
-2 -5 -14 0
-1 10 -18 0
-7 -16 19 0
10 -17 24 0
-4 -5 6 0
-3 -6 12 0
-7 -19 24 0
1 -17 -24 0
-14 -15 -16 0
19 -21 24 0
4 -8 -21 0
-5 9 -16 0
-5 12 13 0
1 -2 24 0
1 10 -23 0
-3 -10 24 0
-7 10 -24 0
-1 6 -20 0
6 -7 -12 0
3 -6 -16 0
-12 -17 18 0
18 20 22 0
5 17 23 0
2 15 21 0
-6 14 23 0
-1 -3 16 0
-2 -6 19 0
-15 -18 -20 0
-15 -17 18 0
-9 -19 21 0
6 -17 -18 0
-10 20 23 0
8 19 20 0
-1 -6 12 0
-7 18 -23 0
3 4 -24 0
